Gurobi Optimizer version 9.1.2 build v9.1.2rc0 (linux64)
Thread count: 36 physical cores, 72 logical processors, using up to 32 threads
Optimize a model with 12 rows, 57 columns and 590 nonzeros
Model fingerprint: 0xf32eec78
Model has 47 quadratic constraints
Coefficient statistics:
  Matrix range     [2e-05, 3e+00]
  QMatrix range    [1e+00, 1e+00]
  QLMatrix range   [1e+00, 1e+00]
  Objective range  [8e-03, 7e-01]
  Bounds range     [1e+00, 1e+00]
  RHS range        [1e+00, 1e+00]
Presolve removed 9 rows and 0 columns

Continuous model is non-convex -- solving as a MIP.

Presolve removed 9 rows and 0 columns
Presolve time: 0.00s
Presolved: 189 rows, 57 columns, 443 nonzeros
Presolved model has 47 bilinear constraint(s)
Variable types: 57 continuous, 0 integer (0 binary)

Root relaxation: objective -1.743721e+00, 44 iterations, 0.00 seconds

    Nodes    |    Current Node    |     Objective Bounds      |     Work
 Expl Unexpl |  Obj  Depth IntInf | Incumbent    BestBd   Gap | It/Node Time

     0     0   -1.74372    0   38          -   -1.74372      -     -    0s
H    0     0                       0.6147548   -1.74372   384%     -    0s
     0     0   -1.64739    0    1    0.61475   -1.64739   368%     -    0s
H    0     0                      -1.6450460   -1.64739  0.14%     -    0s
     0     0     cutoff    0        -1.64505   -1.64505  0.00%     -    0s

Cutting planes:
  RLT: 25
  BQP: 3

Explored 1 nodes (76 simplex iterations) in 0.01 seconds
Thread count was 32 (of 72 available processors)

Solution count 2: -1.64505 0.614755 
No other solutions better than -1.64505

Optimal solution found (tolerance 1.00e-04)
Best objective -1.645045978473e+00, best bound -1.645045978473e+00, gap 0.0000%

User-callback calls 78, time in user-callback 0.00 sec
Gurobi Optimizer version 9.1.2 build v9.1.2rc0 (linux64)
Thread count: 36 physical cores, 72 logical processors, using up to 32 threads
Optimize a model with 24 rows, 125 columns and 2580 nonzeros
Model fingerprint: 0x08a9aa81
Model has 105 quadratic constraints
Coefficient statistics:
  Matrix range     [6e-06, 5e+01]
  QMatrix range    [1e+00, 1e+00]
  QLMatrix range   [1e+00, 1e+00]
  Objective range  [1e-02, 1e+00]
  Bounds range     [1e+00, 1e+00]
  RHS range        [1e+00, 1e+00]
Presolve removed 10 rows and 0 columns

Continuous model is non-convex -- solving as a MIP.

Presolve removed 10 rows and 0 columns
Presolve time: 0.00s
Presolved: 429 rows, 125 columns, 2142 nonzeros
Presolved model has 105 bilinear constraint(s)
Variable types: 125 continuous, 0 integer (0 binary)

Root relaxation: objective -6.501384e+00, 113 iterations, 0.00 seconds

    Nodes    |    Current Node    |     Objective Bounds      |     Work
 Expl Unexpl |  Obj  Depth IntInf | Incumbent    BestBd   Gap | It/Node Time

     0     0   -6.50138    0   95          -   -6.50138      -     -    0s
H    0     0                       0.1799964   -6.50138  3712%     -    0s
     0     0   -5.15844    0   83    0.18000   -5.15844  2966%     -    0s
H    0     0                      -2.2301548   -5.15844   131%     -    0s
     0     0   -5.12352    0   83   -2.23015   -5.12352   130%     -    0s
     0     0   -4.92294    0   70   -2.23015   -4.92294   121%     -    0s
     0     0   -4.92191    0   70   -2.23015   -4.92191   121%     -    0s
     0     0   -4.89156    0   70   -2.23015   -4.89156   119%     -    0s
H    0     0                      -2.4312247   -4.89156   101%     -    0s
     0     0   -4.87900    0   77   -2.43122   -4.87900   101%     -    0s
     0     0   -4.85913    0   94   -2.43122   -4.85913   100%     -    0s
     0     0   -4.85807    0   94   -2.43122   -4.85807   100%     -    0s
     0     0   -4.84860    0   94   -2.43122   -4.84860  99.4%     -    0s
     0     0   -4.84848    0   95   -2.43122   -4.84848  99.4%     -    0s
     0     0   -4.84601    0   83   -2.43122   -4.84601  99.3%     -    0s
     0     0   -4.84591    0   83   -2.43122   -4.84591  99.3%     -    0s
H    0     0                      -3.6289283   -4.84591  33.5%     -    0s
H    0     0                      -3.6943277   -4.84591  31.2%     -    0s
H    0     0                      -3.8060546   -4.84591  27.3%     -    0s
H    0     0                      -3.8413571   -4.84591  26.2%     -    0s
H    0     0                      -3.9074921   -4.84591  24.0%     -    0s
     0     2   -4.84591    0   83   -3.90749   -4.84591  24.0%     -    0s
*  618   259              22      -4.0184089   -4.58814  14.2%  30.2    0s
*  909    88              21      -4.0192558   -4.23949  5.48%  25.4    0s
*  923    88              24      -4.0198713   -4.23949  5.46%  25.2    0s
*  993    88              16      -4.0229891   -4.23949  5.38%  24.1    0s
*  994    88              16      -4.0229906   -4.23949  5.38%  24.0    0s
* 1016    88              18      -4.0234070   -4.23949  5.37%  23.6    0s
* 1063    77              15      -4.0261905   -4.19761  4.26%  23.2    0s
* 1197   123              22      -4.0297479   -4.19761  4.17%  21.6    0s
* 1316   276              25      -4.0563408   -4.19761  3.48%  20.4    0s
* 1607   338              28      -4.0593945   -4.18786  3.16%  18.1    0s
* 1609   338              29      -4.0593993   -4.18786  3.16%  18.1    0s
* 1650   338              21      -4.0701611   -4.18786  2.89%  18.0    0s
* 1692   338              26      -4.0719354   -4.18786  2.85%  17.8    0s
* 1693   338              26      -4.0719702   -4.18786  2.85%  17.8    0s
* 1695   338              26      -4.0721903   -4.18786  2.84%  17.8    0s
* 1696   338              26      -4.0721911   -4.18786  2.84%  17.7    0s
* 1768   338              21      -4.0781625   -4.18786  2.69%  17.2    0s
* 1769   338              21      -4.0782731   -4.18786  2.69%  17.2    0s
* 2198    79              23      -4.0814127   -4.08242  0.02%  14.4    0s
* 2199    79              24      -4.0814249   -4.08242  0.02%  14.4    0s

Cutting planes:
  RLT: 58
  BQP: 16
  PSD: 35

Explored 2475 nodes (32897 simplex iterations) in 0.69 seconds
Thread count was 32 (of 72 available processors)

Solution count 10: -4.08142 -4.08141 -4.07827 ... -4.05939
No other solutions better than -4.08142

Optimal solution found (tolerance 1.00e-04)
Best objective -4.081424946796e+00, best bound -4.081424946796e+00, gap 0.0000%

User-callback calls 5247, time in user-callback 0.00 sec



objective value: -4.081424946796281
objective bound: -4.081424946796281
x_opt: [0.0, 0.0, 1.0, 0.0, 1.0, 0.6723865318160926, 1.0, 1.0, 1.0, 0.0, 0.0, 0.19634667627496732, 0.0, 0.0, 0.005396042623492005, 0.4978099813200116, 0.0, 0.0, 0.0, 0.0]
GUROBI solution time: 0.6860969066619873




